p cnf 1633
-22 -512
-23 -515
-24 -518
-25 -521
-26 -524
-27 -527
-28 -530
-29 -533
-30 -536
-31 -539
-32 -542
-33 -545
-34 -548
-35 -551
-36 -554
-37 -557
-38 -560
-39 -563
-40 -566
-41 -569
-42 -572
-43 573
-44 574
-45 575
-46 576
-47 577
-48 578
-49 579
-50 580
-51 581
-52 582
-53 583
-54 584
-55 585
-56 586
-57 587
-58 -23
-58 -24
23 24 58
-59 -25
-59 -26
25 26 59
-60 -27
-60 -28
27 28 60
-61 -29
-61 -30
29 30 61
-62 -31
-62 -32
31 32 62
-63 -33
-63 -34
33 34 63
-64 -35
-64 -36
35 36 64
-65 -37
-65 -38
37 38 65
-66 -39
-66 -40
39 40 66
-67 -41
-67 -42
41 42 67
-68 -43
-68 -44
43 44 68
-69 -45
-69 -46
45 46 69
-70 -47
-70 -48
47 48 70
-71 -49
-71 -50
49 50 71
-72 -51
-72 -52
51 52 72
-73 -53
-73 -54
53 54 73
-74 -55
-74 -56
55 56 74
-75 58
-75 59
-58 -59 75
-76 60
-76 61
-60 -61 76
-77 62
-77 63
-62 -63 77
-78 64
-78 65
-64 -65 78
-79 66
-79 67
-66 -67 79
-80 68
-80 69
-68 -69 80
-81 70
-81 71
-70 -71 81
-82 72
-82 73
-72 -73 82
-83 -57
-83 74
57 -74 83
-84 75
-84 76
-75 -76 84
-85 77
-85 78
-77 -78 85
-86 79
-86 80
-79 -80 86
-87 81
-87 82
-81 -82 87
-88 84
-88 85
-84 -85 88
-89 86
-89 87
-86 -87 89
-90 88
-90 89
-88 -89 90
-91 83
-91 90
-83 -90 91
-92 -22
-92 23
22 -23 92
-93 22
-93 -23
-22 23 93
-94 -92
-94 -93
92 93 94
-95 22
-95 23
-22 -23 95
-96 -22
-96 -94
22 94 96
-97 22
-97 94
-22 -94 97
-98 -96
-98 -97
96 97 98
-99 22
-99 -94
-22 94 99
-100 -95
-100 -99
95 99 100
-101 -23
-101 24
23 -24 101
-102 23
-102 -24
-23 24 102
-103 -101
-103 -102
101 102 103
-104 23
-104 24
-23 -24 104
-105 100
-105 -103
-100 103 105
-106 -100
-106 103
100 -103 106
-107 -105
-107 -106
105 106 107
-108 -100
-108 -103
100 103 108
-109 -104
-109 -108
104 108 109
-110 -24
-110 25
24 -25 110
-111 24
-111 -25
-24 25 111
-112 -110
-112 -111
110 111 112
-113 24
-113 25
-24 -25 113
-114 109
-114 -112
-109 112 114
-115 -109
-115 112
109 -112 115
-116 -114
-116 -115
114 115 116
-117 -109
-117 -112
109 112 117
-118 -113
-118 -117
113 117 118
-119 -25
-119 26
25 -26 119
-120 25
-120 -26
-25 26 120
-121 -119
-121 -120
119 120 121
-122 25
-122 26
-25 -26 122
-123 118
-123 -121
-118 121 123
-124 -118
-124 121
118 -121 124
-125 -123
-125 -124
123 124 125
-126 -118
-126 -121
118 121 126
-127 -122
-127 -126
122 126 127
-128 -26
-128 27
26 -27 128
-129 26
-129 -27
-26 27 129
-130 -128
-130 -129
128 129 130
-131 26
-131 27
-26 -27 131
-132 127
-132 -130
-127 130 132
-133 -127
-133 130
127 -130 133
-134 -132
-134 -133
132 133 134
-135 -127
-135 -130
127 130 135
-136 -131
-136 -135
131 135 136
-137 -27
-137 28
27 -28 137
-138 27
-138 -28
-27 28 138
-139 -137
-139 -138
137 138 139
-140 27
-140 28
-27 -28 140
-141 136
-141 -139
-136 139 141
-142 -136
-142 139
136 -139 142
-143 -141
-143 -142
141 142 143
-144 -136
-144 -139
136 139 144
-145 -140
-145 -144
140 144 145
-146 -28
-146 29
28 -29 146
-147 28
-147 -29
-28 29 147
-148 -146
-148 -147
146 147 148
-149 28
-149 29
-28 -29 149
-150 145
-150 -148
-145 148 150
-151 -145
-151 148
145 -148 151
-152 -150
-152 -151
150 151 152
-153 -145
-153 -148
145 148 153
-154 -149
-154 -153
149 153 154
-155 -29
-155 30
29 -30 155
-156 29
-156 -30
-29 30 156
-157 -155
-157 -156
155 156 157
-158 29
-158 30
-29 -30 158
-159 154
-159 -157
-154 157 159
-160 -154
-160 157
154 -157 160
-161 -159
-161 -160
159 160 161
-162 -154
-162 -157
154 157 162
-163 -158
-163 -162
158 162 163
-164 -30
-164 31
30 -31 164
-165 30
-165 -31
-30 31 165
-166 -164
-166 -165
164 165 166
-167 30
-167 31
-30 -31 167
-168 163
-168 -166
-163 166 168
-169 -163
-169 166
163 -166 169
-170 -168
-170 -169
168 169 170
-171 -163
-171 -166
163 166 171
-172 -167
-172 -171
167 171 172
-173 -31
-173 32
31 -32 173
-174 31
-174 -32
-31 32 174
-175 -173
-175 -174
173 174 175
-176 31
-176 32
-31 -32 176
-177 172
-177 -175
-172 175 177
-178 -172
-178 175
172 -175 178
-179 -177
-179 -178
177 178 179
-180 -172
-180 -175
172 175 180
-181 -176
-181 -180
176 180 181
-182 -32
-182 33
32 -33 182
-183 32
-183 -33
-32 33 183
-184 -182
-184 -183
182 183 184
-185 32
-185 33
-32 -33 185
-186 181
-186 -184
-181 184 186
-187 -181
-187 184
181 -184 187
-188 -186
-188 -187
186 187 188
-189 -181
-189 -184
181 184 189
-190 -185
-190 -189
185 189 190
-191 -33
-191 34
33 -34 191
-192 33
-192 -34
-33 34 192
-193 -191
-193 -192
191 192 193
-194 33
-194 34
-33 -34 194
-195 190
-195 -193
-190 193 195
-196 -190
-196 193
190 -193 196
-197 -195
-197 -196
195 196 197
-198 -190
-198 -193
190 193 198
-199 -194
-199 -198
194 198 199
-200 -34
-200 35
34 -35 200
-201 34
-201 -35
-34 35 201
-202 -200
-202 -201
200 201 202
-203 34
-203 35
-34 -35 203
-204 199
-204 -202
-199 202 204
-205 -199
-205 202
199 -202 205
-206 -204
-206 -205
204 205 206
-207 -199
-207 -202
199 202 207
-208 -203
-208 -207
203 207 208
-209 -35
-209 36
35 -36 209
-210 35
-210 -36
-35 36 210
-211 -209
-211 -210
209 210 211
-212 35
-212 36
-35 -36 212
-213 208
-213 -211
-208 211 213
-214 -208
-214 211
208 -211 214
-215 -213
-215 -214
213 214 215
-216 -208
-216 -211
208 211 216
-217 -212
-217 -216
212 216 217
-218 -36
-218 37
36 -37 218
-219 36
-219 -37
-36 37 219
-220 -218
-220 -219
218 219 220
-221 36
-221 37
-36 -37 221
-222 217
-222 -220
-217 220 222
-223 -217
-223 220
217 -220 223
-224 -222
-224 -223
222 223 224
-225 -217
-225 -220
217 220 225
-226 -221
-226 -225
221 225 226
-227 -37
-227 38
37 -38 227
-228 37
-228 -38
-37 38 228
-229 -227
-229 -228
227 228 229
-230 37
-230 38
-37 -38 230
-231 226
-231 -229
-226 229 231
-232 -226
-232 229
226 -229 232
-233 -231
-233 -232
231 232 233
-234 -226
-234 -229
226 229 234
-235 -230
-235 -234
230 234 235
-236 -38
-236 39
38 -39 236
-237 38
-237 -39
-38 39 237
-238 -236
-238 -237
236 237 238
-239 38
-239 39
-38 -39 239
-240 235
-240 -238
-235 238 240
-241 -235
-241 238
235 -238 241
-242 -240
-242 -241
240 241 242
-243 -235
-243 -238
235 238 243
-244 -239
-244 -243
239 243 244
-245 -39
-245 40
39 -40 245
-246 39
-246 -40
-39 40 246
-247 -245
-247 -246
245 246 247
-248 39
-248 40
-39 -40 248
-249 244
-249 -247
-244 247 249
-250 -244
-250 247
244 -247 250
-251 -249
-251 -250
249 250 251
-252 -244
-252 -247
244 247 252
-253 -248
-253 -252
248 252 253
-254 -40
-254 41
40 -41 254
-255 40
-255 -41
-40 41 255
-256 -254
-256 -255
254 255 256
-257 40
-257 41
-40 -41 257
-258 253
-258 -256
-253 256 258
-259 -253
-259 256
253 -256 259
-260 -258
-260 -259
258 259 260
-261 -253
-261 -256
253 256 261
-262 -257
-262 -261
257 261 262
-263 -41
-263 42
41 -42 263
-264 41
-264 -42
-41 42 264
-265 -263
-265 -264
263 264 265
-266 41
-266 42
-41 -42 266
-267 262
-267 -265
-262 265 267
-268 -262
-268 265
262 -265 268
-269 -267
-269 -268
267 268 269
-270 -262
-270 -265
262 265 270
-271 -266
-271 -270
266 270 271
-272 -42
-272 43
42 -43 272
-273 42
-273 -43
-42 43 273
-274 -272
-274 -273
272 273 274
-275 42
-275 43
-42 -43 275
-276 271
-276 -274
-271 274 276
-277 -271
-277 274
271 -274 277
-278 -276
-278 -277
276 277 278
-279 -271
-279 -274
271 274 279
-280 -275
-280 -279
275 279 280
-281 -43
-281 44
43 -44 281
-282 43
-282 -44
-43 44 282
-283 -281
-283 -282
281 282 283
-284 43
-284 44
-43 -44 284
-285 280
-285 -283
-280 283 285
-286 -280
-286 283
280 -283 286
-287 -285
-287 -286
285 286 287
-288 -280
-288 -283
280 283 288
-289 -284
-289 -288
284 288 289
-290 -44
-290 45
44 -45 290
-291 44
-291 -45
-44 45 291
-292 -290
-292 -291
290 291 292
-293 44
-293 45
-44 -45 293
-294 289
-294 -292
-289 292 294
-295 -289
-295 292
289 -292 295
-296 -294
-296 -295
294 295 296
-297 -289
-297 -292
289 292 297
-298 -293
-298 -297
293 297 298
-299 -45
-299 46
45 -46 299
-300 45
-300 -46
-45 46 300
-301 -299
-301 -300
299 300 301
-302 45
-302 46
-45 -46 302
-303 298
-303 -301
-298 301 303
-304 -298
-304 301
298 -301 304
-305 -303
-305 -304
303 304 305
-306 -298
-306 -301
298 301 306
-307 -302
-307 -306
302 306 307
-308 -46
-308 47
46 -47 308
-309 46
-309 -47
-46 47 309
-310 -308
-310 -309
308 309 310
-311 46
-311 47
-46 -47 311
-312 307
-312 -310
-307 310 312
-313 -307
-313 310
307 -310 313
-314 -312
-314 -313
312 313 314
-315 -307
-315 -310
307 310 315
-316 -311
-316 -315
311 315 316
-317 -47
-317 48
47 -48 317
-318 47
-318 -48
-47 48 318
-319 -317
-319 -318
317 318 319
-320 47
-320 48
-47 -48 320
-321 316
-321 -319
-316 319 321
-322 -316
-322 319
316 -319 322
-323 -321
-323 -322
321 322 323
-324 -316
-324 -319
316 319 324
-325 -320
-325 -324
320 324 325
-326 -48
-326 49
48 -49 326
-327 48
-327 -49
-48 49 327
-328 -326
-328 -327
326 327 328
-329 48
-329 49
-48 -49 329
-330 325
-330 -328
-325 328 330
-331 -325
-331 328
325 -328 331
-332 -330
-332 -331
330 331 332
-333 -325
-333 -328
325 328 333
-334 -329
-334 -333
329 333 334
-335 -49
-335 50
49 -50 335
-336 49
-336 -50
-49 50 336
-337 -335
-337 -336
335 336 337
-338 49
-338 50
-49 -50 338
-339 334
-339 -337
-334 337 339
-340 -334
-340 337
334 -337 340
-341 -339
-341 -340
339 340 341
-342 -334
-342 -337
334 337 342
-343 -338
-343 -342
338 342 343
-344 -50
-344 51
50 -51 344
-345 50
-345 -51
-50 51 345
-346 -344
-346 -345
344 345 346
-347 50
-347 51
-50 -51 347
-348 343
-348 -346
-343 346 348
-349 -343
-349 346
343 -346 349
-350 -348
-350 -349
348 349 350
-351 -343
-351 -346
343 346 351
-352 -347
-352 -351
347 351 352
-353 -51
-353 52
51 -52 353
-354 51
-354 -52
-51 52 354
-355 -353
-355 -354
353 354 355
-356 51
-356 52
-51 -52 356
-357 352
-357 -355
-352 355 357
-358 -352
-358 355
352 -355 358
-359 -357
-359 -358
357 358 359
-360 -352
-360 -355
352 355 360
-361 -356
-361 -360
356 360 361
-362 -52
-362 53
52 -53 362
-363 52
-363 -53
-52 53 363
-364 -362
-364 -363
362 363 364
-365 52
-365 53
-52 -53 365
-366 361
-366 -364
-361 364 366
-367 -361
-367 364
361 -364 367
-368 -366
-368 -367
366 367 368
-369 -361
-369 -364
361 364 369
-370 -365
-370 -369
365 369 370
-371 -53
-371 54
53 -54 371
-372 53
-372 -54
-53 54 372
-373 -371
-373 -372
371 372 373
-374 53
-374 54
-53 -54 374
-375 370
-375 -373
-370 373 375
-376 -370
-376 373
370 -373 376
-377 -375
-377 -376
375 376 377
-378 -370
-378 -373
370 373 378
-379 -374
-379 -378
374 378 379
-380 -54
-380 55
54 -55 380
-381 54
-381 -55
-54 55 381
-382 -380
-382 -381
380 381 382
-383 54
-383 55
-54 -55 383
-384 379
-384 -382
-379 382 384
-385 -379
-385 382
379 -382 385
-386 -384
-386 -385
384 385 386
-387 -379
-387 -382
379 382 387
-388 -383
-388 -387
383 387 388
-389 -55
-389 56
55 -56 389
-390 55
-390 -56
-55 56 390
-391 -389
-391 -390
389 390 391
-392 55
-392 56
-55 -56 392
-393 388
-393 -391
-388 391 393
-394 -388
-394 391
388 -391 394
-395 -393
-395 -394
393 394 395
-396 -388
-396 -391
388 391 396
-397 -392
-397 -396
392 396 397
-398 -56
-398 57
56 -57 398
-399 56
-399 -57
-56 57 399
-400 -398
-400 -399
398 399 400
-401 56
-401 57
-56 -57 401
-402 397
-402 -400
-397 400 402
-403 -397
-403 400
397 -400 403
-404 -402
-404 -403
402 403 404
-405 -397
-405 -400
397 400 405
-406 -401
-406 -405
401 405 406
-407 22
-407 -98
-22 98 407
-408 -22
-408 24
22 -24 408
-409 -407
-409 -408
407 408 409
-410 22
-410 -107
-22 107 410
-411 -22
-411 25
22 -25 411
-412 -410
-412 -411
410 411 412
-413 22
-413 -116
-22 116 413
-414 -22
-414 26
22 -26 414
-415 -413
-415 -414
413 414 415
-416 22
-416 -125
-22 125 416
-417 -22
-417 27
22 -27 417
-418 -416
-418 -417
416 417 418
-419 22
-419 -134
-22 134 419
-420 -22
-420 28
22 -28 420
-421 -419
-421 -420
419 420 421
-422 22
-422 -143
-22 143 422
-423 -22
-423 29
22 -29 423
-424 -422
-424 -423
422 423 424
-425 22
-425 -152
-22 152 425
-426 -22
-426 30
22 -30 426
-427 -425
-427 -426
425 426 427
-428 22
-428 -161
-22 161 428
-429 -22
-429 31
22 -31 429
-430 -428
-430 -429
428 429 430
-431 22
-431 -170
-22 170 431
-432 -22
-432 32
22 -32 432
-433 -431
-433 -432
431 432 433
-434 22
-434 -179
-22 179 434
-435 -22
-435 33
22 -33 435
-436 -434
-436 -435
434 435 436
-437 22
-437 -188
-22 188 437
-438 -22
-438 34
22 -34 438
-439 -437
-439 -438
437 438 439
-440 22
-440 -197
-22 197 440
-441 -22
-441 35
22 -35 441
-442 -440
-442 -441
440 441 442
-443 22
-443 -206
-22 206 443
-444 -22
-444 36
22 -36 444
-445 -443
-445 -444
443 444 445
-446 22
-446 -215
-22 215 446
-447 -22
-447 37
22 -37 447
-448 -446
-448 -447
446 447 448
-449 22
-449 -224
-22 224 449
-450 -22
-450 38
22 -38 450
-451 -449
-451 -450
449 450 451
-452 22
-452 -233
-22 233 452
-453 -22
-453 39
22 -39 453
-454 -452
-454 -453
452 453 454
-455 22
-455 -242
-22 242 455
-456 -22
-456 40
22 -40 456
-457 -455
-457 -456
455 456 457
-458 22
-458 -251
-22 251 458
-459 -22
-459 41
22 -41 459
-460 -458
-460 -459
458 459 460
-461 22
-461 -260
-22 260 461
-462 -22
-462 42
22 -42 462
-463 -461
-463 -462
461 462 463
-464 22
-464 -269
-22 269 464
-465 -22
-465 43
22 -43 465
-466 -464
-466 -465
464 465 466
-467 22
-467 -278
-22 278 467
-468 -22
-468 44
22 -44 468
-469 -467
-469 -468
467 468 469
-470 22
-470 -287
-22 287 470
-471 -22
-471 45
22 -45 471
-472 -470
-472 -471
470 471 472
-473 22
-473 -296
-22 296 473
-474 -22
-474 46
22 -46 474
-475 -473
-475 -474
473 474 475
-476 22
-476 -305
-22 305 476
-477 -22
-477 47
22 -47 477
-478 -476
-478 -477
476 477 478
-479 22
-479 -314
-22 314 479
-480 -22
-480 48
22 -48 480
-481 -479
-481 -480
479 480 481
-482 22
-482 -323
-22 323 482
-483 -22
-483 49
22 -49 483
-484 -482
-484 -483
482 483 484
-485 22
-485 -332
-22 332 485
-486 -22
-486 50
22 -50 486
-487 -485
-487 -486
485 486 487
-488 22
-488 -341
-22 341 488
-489 -22
-489 51
22 -51 489
-490 -488
-490 -489
488 489 490
-491 22
-491 -350
-22 350 491
-492 -22
-492 52
22 -52 492
-493 -491
-493 -492
491 492 493
-494 22
-494 -359
-22 359 494
-495 -22
-495 53
22 -53 495
-496 -494
-496 -495
494 495 496
-497 22
-497 -368
-22 368 497
-498 -22
-498 54
22 -54 498
-499 -497
-499 -498
497 498 499
-500 22
-500 -377
-22 377 500
-501 -22
-501 55
22 -55 501
-502 -500
-502 -501
500 501 502
-503 22
-503 -386
-22 386 503
-504 -22
-504 56
22 -56 504
-505 -503
-505 -504
503 504 505
-506 22
-506 -395
-22 395 506
-507 -22
-507 57
22 -57 507
-508 -506
-508 -507
506 507 508
-509 22
-509 -404
-22 404 509
-510 1
-510 91
-1 -91 510
-511 -91
-511 92
91 -92 511
-512 -510
-512 -511
510 511 512
-513 2
-513 91
-2 -91 513
-514 -91
-514 -409
91 409 514
-515 -513
-515 -514
513 514 515
-516 3
-516 91
-3 -91 516
-517 -91
-517 -412
91 412 517
-518 -516
-518 -517
516 517 518
-519 4
-519 91
-4 -91 519
-520 -91
-520 -415
91 415 520
-521 -519
-521 -520
519 520 521
-522 5
-522 91
-5 -91 522
-523 -91
-523 -418
91 418 523
-524 -522
-524 -523
522 523 524
-525 6
-525 91
-6 -91 525
-526 -91
-526 -421
91 421 526
-527 -525
-527 -526
525 526 527
-528 7
-528 91
-7 -91 528
-529 -91
-529 -424
91 424 529
-530 -528
-530 -529
528 529 530
-531 8
-531 91
-8 -91 531
-532 -91
-532 -427
91 427 532
-533 -531
-533 -532
531 532 533
-534 9
-534 91
-9 -91 534
-535 -91
-535 -430
91 430 535
-536 -534
-536 -535
534 535 536
-537 10
-537 91
-10 -91 537
-538 -91
-538 -433
91 433 538
-539 -537
-539 -538
537 538 539
-540 11
-540 91
-11 -91 540
-541 -91
-541 -436
91 436 541
-542 -540
-542 -541
540 541 542
-543 12
-543 91
-12 -91 543
-544 -91
-544 -439
91 439 544
-545 -543
-545 -544
543 544 545
-546 13
-546 91
-13 -91 546
-547 -91
-547 -442
91 442 547
-548 -546
-548 -547
546 547 548
-549 14
-549 91
-14 -91 549
-550 -91
-550 -445
91 445 550
-551 -549
-551 -550
549 550 551
-552 15
-552 91
-15 -91 552
-553 -91
-553 -448
91 448 553
-554 -552
-554 -553
552 553 554
-555 16
-555 91
-16 -91 555
-556 -91
-556 -451
91 451 556
-557 -555
-557 -556
555 556 557
-558 17
-558 91
-17 -91 558
-559 -91
-559 -454
91 454 559
-560 -558
-560 -559
558 559 560
-561 18
-561 91
-18 -91 561
-562 -91
-562 -457
91 457 562
-563 -561
-563 -562
561 562 563
-564 19
-564 91
-19 -91 564
-565 -91
-565 -460
91 460 565
-566 -564
-566 -565
564 565 566
-567 20
-567 91
-20 -91 567
-568 -91
-568 -463
91 463 568
-569 -567
-569 -568
567 568 569
-570 21
-570 91
-21 -91 570
-571 -91
-571 -466
91 466 571
-572 -570
-572 -571
570 571 572
-573 -91
-573 -469
91 469 573
-574 -91
-574 -472
91 472 574
-575 -91
-575 -475
91 475 575
-576 -91
-576 -478
91 478 576
-577 -91
-577 -481
91 481 577
-578 -91
-578 -484
91 484 578
-579 -91
-579 -487
91 487 579
-580 -91
-580 -490
91 490 580
-581 -91
-581 -493
91 493 581
-582 -91
-582 -496
91 496 582
-583 -91
-583 -499
91 499 583
-584 -91
-584 -502
91 502 584
-585 -91
-585 -505
91 505 585
-586 -91
-586 -508
91 508 586
-587 -91
-587 509
91 -509 587
-588 -57
-588 406
57 -406 588
-589 22
-589 -588
-22 588 589
589
